\ LP format - for model browsing. Use MPS format to capture full model detail.
Minimize
  0 C0 + 1.414213562373095 x[0,_1,_0] + x[0,_2,_0]
   + 1.414213562373095 x[0,_3,_0] + 2.23606797749979 x[0,_4,_0]
   + 2 x[0,_5,_0] + 2.23606797749979 x[0,_6,_0] + 0 C7
   + 1.414213562373095 x[1,_0,_0] + x[1,_2,_0] + 2 x[1,_3,_0] + x[1,_4,_0]
   + 1.414213562373095 x[1,_5,_0] + 2.23606797749979 x[1,_6,_0] + 0 C14
   + x[2,_0,_0] + x[2,_1,_0] + x[2,_3,_0] + 1.414213562373095 x[2,_4,_0]
   + x[2,_5,_0] + 1.414213562373095 x[2,_6,_0] + 0 C21
   + 1.414213562373095 x[3,_0,_0] + 2 x[3,_1,_0] + x[3,_2,_0]
   + 2.23606797749979 x[3,_4,_0] + 1.414213562373095 x[3,_5,_0]
   + x[3,_6,_0] + 0 C28 + 2.23606797749979 x[4,_0,_0] + x[4,_1,_0]
   + 1.414213562373095 x[4,_2,_0] + 2.23606797749979 x[4,_3,_0]
   + x[4,_5,_0] + 2 x[4,_6,_0] + 0 C35 + 2 x[5,_0,_0]
   + 1.414213562373095 x[5,_1,_0] + x[5,_2,_0]
   + 1.414213562373095 x[5,_3,_0] + x[5,_4,_0] + x[5,_6,_0] + 0 C42
   + 2.23606797749979 x[6,_0,_0] + 2.23606797749979 x[6,_1,_0]
   + 1.414213562373095 x[6,_2,_0] + x[6,_3,_0] + 2 x[6,_4,_0] + x[6,_5,_0]
Subject To
 R0: x[0,_1,_0] + x[0,_2,_0] + x[0,_3,_0] + x[0,_4,_0] + x[0,_5,_0]
   + x[0,_6,_0] = 1
 R1: x[1,_0,_0] + x[2,_0,_0] + x[3,_0,_0] + x[4,_0,_0] + x[5,_0,_0]
   + x[6,_0,_0] = 1
 R2: x[0,_1,_0] + x[1,_0,_0] <= 1
 R3: x[0,_2,_0] + x[2,_0,_0] <= 1
 R4: x[0,_3,_0] + x[3,_0,_0] <= 1
 R5: x[0,_4,_0] + x[4,_0,_0] <= 1
 R6: x[0,_5,_0] + x[5,_0,_0] <= 1
 R7: x[0,_6,_0] + x[6,_0,_0] <= 1
 R8: x[0,_1,_0] + x[1,_0,_0] <= 1
 R9: x[1,_2,_0] + x[2,_1,_0] <= 1
 R10: x[1,_3,_0] + x[3,_1,_0] <= 1
 R11: x[1,_4,_0] + x[4,_1,_0] <= 1
 R12: x[1,_5,_0] + x[5,_1,_0] <= 1
 R13: x[1,_6,_0] + x[6,_1,_0] <= 1
 R14: x[0,_2,_0] + x[2,_0,_0] <= 1
 R15: x[1,_2,_0] + x[2,_1,_0] <= 1
 R16: x[2,_3,_0] + x[3,_2,_0] <= 1
 R17: x[2,_4,_0] + x[4,_2,_0] <= 1
 R18: x[2,_5,_0] + x[5,_2,_0] <= 1
 R19: x[2,_6,_0] + x[6,_2,_0] <= 1
 R20: x[0,_3,_0] + x[3,_0,_0] <= 1
 R21: x[1,_3,_0] + x[3,_1,_0] <= 1
 R22: x[2,_3,_0] + x[3,_2,_0] <= 1
 R23: x[3,_4,_0] + x[4,_3,_0] <= 1
 R24: x[3,_5,_0] + x[5,_3,_0] <= 1
 R25: x[3,_6,_0] + x[6,_3,_0] <= 1
 R26: x[0,_4,_0] + x[4,_0,_0] <= 1
 R27: x[1,_4,_0] + x[4,_1,_0] <= 1
 R28: x[2,_4,_0] + x[4,_2,_0] <= 1
 R29: x[3,_4,_0] + x[4,_3,_0] <= 1
 R30: x[4,_5,_0] + x[5,_4,_0] <= 1
 R31: x[4,_6,_0] + x[6,_4,_0] <= 1
 R32: x[0,_5,_0] + x[5,_0,_0] <= 1
 R33: x[1,_5,_0] + x[5,_1,_0] <= 1
 R34: x[2,_5,_0] + x[5,_2,_0] <= 1
 R35: x[3,_5,_0] + x[5,_3,_0] <= 1
 R36: x[4,_5,_0] + x[5,_4,_0] <= 1
 R37: x[5,_6,_0] + x[6,_5,_0] <= 1
 R38: x[0,_6,_0] + x[6,_0,_0] <= 1
 R39: x[1,_6,_0] + x[6,_1,_0] <= 1
 R40: x[2,_6,_0] + x[6,_2,_0] <= 1
 R41: x[3,_6,_0] + x[6,_3,_0] <= 1
 R42: x[4,_6,_0] + x[6,_4,_0] <= 1
 R43: x[5,_6,_0] + x[6,_5,_0] <= 1
 R44: x[2,_1,_0] + x[3,_1,_0] + x[4,_1,_0] + x[5,_1,_0] + x[6,_1,_0] = 1
 R45: x[1,_2,_0] + x[3,_2,_0] + x[4,_2,_0] + x[5,_2,_0] + x[6,_2,_0] = 1
 R46: x[1,_3,_0] + x[2,_3,_0] + x[4,_3,_0] + x[5,_3,_0] + x[6,_3,_0] = 1
 R47: x[1,_4,_0] + x[2,_4,_0] + x[3,_4,_0] + x[5,_4,_0] + x[6,_4,_0] = 1
 R48: x[1,_5,_0] + x[2,_5,_0] + x[3,_5,_0] + x[4,_5,_0] + x[6,_5,_0] = 1
 R49: x[1,_6,_0] + x[2,_6,_0] + x[3,_6,_0] + x[4,_6,_0] + x[5,_6,_0] = 1
 R50: x[0,_1,_0] + x[0,_2,_0] + x[0,_3,_0] + x[0,_4,_0] + x[0,_5,_0]
   + x[0,_6,_0] - x[1,_0,_0] - x[2,_0,_0] - x[3,_0,_0] - x[4,_0,_0]
   - x[5,_0,_0] - x[6,_0,_0] = 0
 R51: - x[0,_1,_0] + x[1,_0,_0] + x[1,_2,_0] + x[1,_3,_0] + x[1,_4,_0]
   + x[1,_5,_0] + x[1,_6,_0] - x[2,_1,_0] - x[3,_1,_0] - x[4,_1,_0]
   - x[5,_1,_0] - x[6,_1,_0] = 0
 R52: - x[0,_2,_0] - x[1,_2,_0] + x[2,_0,_0] + x[2,_1,_0] + x[2,_3,_0]
   + x[2,_4,_0] + x[2,_5,_0] + x[2,_6,_0] - x[3,_2,_0] - x[4,_2,_0]
   - x[5,_2,_0] - x[6,_2,_0] = 0
 R53: - x[0,_3,_0] - x[1,_3,_0] - x[2,_3,_0] + x[3,_0,_0] + x[3,_1,_0]
   + x[3,_2,_0] + x[3,_4,_0] + x[3,_5,_0] + x[3,_6,_0] - x[4,_3,_0]
   - x[5,_3,_0] - x[6,_3,_0] = 0
 R54: - x[0,_4,_0] - x[1,_4,_0] - x[2,_4,_0] - x[3,_4,_0] + x[4,_0,_0]
   + x[4,_1,_0] + x[4,_2,_0] + x[4,_3,_0] + x[4,_5,_0] + x[4,_6,_0]
   - x[5,_4,_0] - x[6,_4,_0] = 0
 R55: - x[0,_5,_0] - x[1,_5,_0] - x[2,_5,_0] - x[3,_5,_0] - x[4,_5,_0]
   + x[5,_0,_0] + x[5,_1,_0] + x[5,_2,_0] + x[5,_3,_0] + x[5,_4,_0]
   + x[5,_6,_0] - x[6,_5,_0] = 0
 R56: - x[0,_6,_0] - x[1,_6,_0] - x[2,_6,_0] - x[3,_6,_0] - x[4,_6,_0]
   - x[5,_6,_0] + x[6,_0,_0] + x[6,_1,_0] + x[6,_2,_0] + x[6,_3,_0]
   + x[6,_4,_0] + x[6,_5,_0] = 0
Bounds
Binaries
 x[0,_1,_0] x[0,_2,_0] x[0,_3,_0] x[0,_4,_0] x[0,_5,_0] x[0,_6,_0]
 x[1,_0,_0] x[1,_2,_0] x[1,_3,_0] x[1,_4,_0] x[1,_5,_0] x[1,_6,_0]
 x[2,_0,_0] x[2,_1,_0] x[2,_3,_0] x[2,_4,_0] x[2,_5,_0] x[2,_6,_0]
 x[3,_0,_0] x[3,_1,_0] x[3,_2,_0] x[3,_4,_0] x[3,_5,_0] x[3,_6,_0]
 x[4,_0,_0] x[4,_1,_0] x[4,_2,_0] x[4,_3,_0] x[4,_5,_0] x[4,_6,_0]
 x[5,_0,_0] x[5,_1,_0] x[5,_2,_0] x[5,_3,_0] x[5,_4,_0] x[5,_6,_0]
 x[6,_0,_0] x[6,_1,_0] x[6,_2,_0] x[6,_3,_0] x[6,_4,_0] x[6,_5,_0]
Generals
 C0 C7 C14 C21 C28 C35 C42
End
